
Gurobi 10.0.1 (win64) logging started Sat Sep 16 16:57:13 2023

Set parameter LogFile to value "./results-heuristic-start//log/Fattahi_setup_09_modified_old_makespan.log"
Gurobi Optimizer version 10.0.1 build v10.0.1rc0 (win64)

CPU model: AMD Ryzen 7 3700X 8-Core Processor, instruction set [SSE2|AVX|AVX2]
Thread count: 8 physical cores, 16 logical processors, using up to 16 threads

Optimize a model with 176 rows, 118 columns and 723 nonzeros
Model fingerprint: 0xa6ec0983
Variable types: 18 continuous, 100 integer (99 binary)
Coefficient statistics:
  Matrix range     [1e+00, 1e+06]
  Objective range  [1e+00, 1e+00]
  Bounds range     [1e+00, 1e+00]
  RHS range        [1e+00, 3e+06]

User MIP start did not produce a new incumbent solution
User MIP start violates constraint initial_start_time_job0_stage0_machine0_constraint by 420.000000000

Presolve removed 27 rows and 45 columns
Presolve time: 0.00s
Presolved: 149 rows, 73 columns, 678 nonzeros
Variable types: 18 continuous, 55 integer (54 binary)

Root relaxation: objective 1.887000e+03, 37 iterations, 0.00 seconds (0.00 work units)
Another try with MIP start

    Nodes    |    Current Node    |     Objective Bounds      |     Work
 Expl Unexpl |  Obj  Depth IntInf | Incumbent    BestBd   Gap | It/Node Time

H    0     0                    2753.0000000 1887.00000  31.5%     -    0s
     0     0 1887.00000    0   15 2753.00000 1887.00000  31.5%     -    0s
H    0     0                    2541.0000000 1887.00000  25.7%     -    0s
H    0     0                    2419.0000000 1905.00000  21.2%     -    0s
     0     0 1905.00000    0   14 2419.00000 1905.00000  21.2%     -    0s
     0     0 1905.00000    0    6 2419.00000 1905.00000  21.2%     -    0s
H    0     0                    2345.0000000 1905.00000  18.8%     -    0s
     0     0 1907.00425    0   12 2345.00000 1907.00425  18.7%     -    0s
     0     0 1907.00425    0    9 2345.00000 1907.00425  18.7%     -    0s
H    0     0                    2290.0000000 1907.00425  16.7%     -    0s
     0     0 1914.99858    0   10 2290.00000 1914.99858  16.4%     -    0s
     0     0 1916.99843    0   14 2290.00000 1916.99843  16.3%     -    0s
     0     0 1917.00000    0   14 2290.00000 1917.00000  16.3%     -    0s
     0     0 1917.00000    0   15 2290.00000 1917.00000  16.3%     -    0s
     0     0 1917.00000    0   14 2290.00000 1917.00000  16.3%     -    0s
     0     0 1917.00000    0   14 2290.00000 1917.00000  16.3%     -    0s
     0     0 1917.00000    0   15 2290.00000 1917.00000  16.3%     -    0s
     0     0 1917.00000    0   14 2290.00000 1917.00000  16.3%     -    0s
     0     1 1917.00000    0   14 2290.00000 1917.00000  16.3%     -    0s

Cutting planes:
  Learned: 24
  Gomory: 4
  Cover: 6
  Implied bound: 12
  MIR: 11
  Flow cover: 30
  Inf proof: 3
  Relax-and-lift: 2

Explored 652 nodes (4238 simplex iterations) in 0.10 seconds (0.06 work units)
Thread count was 16 (of 16 available processors)

Solution count 5: 2290 2345 2419 ... 2753

Optimal solution found (tolerance 1.00e-04)
Best objective 2.290000000000e+03, best bound 2.290000000000e+03, gap 0.0000%
Warning: constraint name "precedence between 0,1 to 0,0 if x_[j,l,h,z,i]=1" has a space
Warning: constraint name "precedence between 0,1 to 0,0 if x_[j,l,h,z,i]=1" has a space
Warning: default constraint names used to write mps file
